2
1000 2
87
250 1 2
251 1 2
252 1 2
253 1 1
254 1 2
255 1 2
256 1 1
257 1 2
259 1 2
260 1 3
261 1 1
262 1 3
264 1 3
265 1 3
267 1 2
270 1 1
272 1 2
273 1 2
274 1 1
275 1 1
278 1 1
279 1 2
281 1 1
282 1 1
284 1 2
285 1 3
287 1 1
290 1 2
293 1 2
294 1 2
298 1 2
299 1 1
303 1 1
310 1 1
316 1 1
317 1 1
319 1 1
321 1 1
323 1 1
324 1 1
329 1 2
330 1 1
337 1 2
349 1 1
352 1 1
355 1 1
358 1 1
359 1 1
361 1 1
364 1 1
365 1 1
367 1 1
368 1 1
369 1 2
370 1 1
376 1 1
377 1 2
381 1 2
383 1 1
387 1 1
393 1 1
397 1 1
403 1 1
404 1 2
412 1 1
414 1 1
419 1 1
422 1 1
427 1 1
428 1 1
431 1 1
432 1 1
434 1 1
437 1 1
442 1 2
443 1 1
446 1 1
447 1 1
454 1 1
461 1 1
467 1 1
472 1 1
475 1 1
484 1 1
485 1 1
490 1 1
492 1 1
